100 151732
42 59 98 75 48 10 65 58 52 82 19 62 64 60 8 25 7 54 100 43 53 1 18 84 37 24 49 50 5 2 39 22 93 95 29 35 87 6 79 69 17 92 46 20 51 11 14 89 66 80 78 34 91 12 71 99 68 23 85 57 67 45 70 41 55 88 76 83 74 3 27 26 36 77 56 9 13 38 40 61 94 44 96 72 4 47 15 30 73 16 33 21 63 81 31 32 86 28 90 97 
